40
1 0 28
2 0 18
2 1 31
3 0 8
3 1 7
3 2 40
4 0 37
4 1 31
4 2 4
4 3 29
5 0 22
5 1 27
5 2 30
5 3 26
5 4 37
6 0 30
6 1 1
6 2 4
6 3 3
6 4 22
6 5 3
7 0 36
7 1 16
7 2 16
7 3 33
7 4 9
7 5 13
7 6 32
8 0 8
8 1 31
8 2 22
8 3 9
8 4 36
8 5 39
8 6 7
8 7 36
9 0 36
9 1 6
9 2 25
9 3 40
9 4 4
9 5 29
9 6 20
9 7 35
9 8 33
10 0 17
10 1 20
10 2 4
10 3 8
10 4 28
10 5 1
10 6 2
10 7 6
10 8 28
10 9 16
11 0 36
11 1 9
11 2 33
11 3 20
11 4 39
11 5 3
11 6 21
11 7 14
11 8 15
11 9 5
11 10 37
12 0 1
12 1 12
12 2 8
12 3 14
12 4 32
12 5 38
12 6 40
12 7 3
12 8 21
12 9 14
12 10 20
12 11 17
13 0 26
13 1 25
13 2 32
13 3 22
13 4 8
13 5 40
13 6 5
13 7 13
13 8 31
13 9 4
13 10 29
13 11 34
13 12 17
14 0 10
14 1 6
14 2 3
14 3 35
14 4 13
14 5 36
14 6 9
14 7 19
14 8 39
14 9 29
14 10 36
14 11 30
14 12 9
14 13 31
15 0 16
15 1 28
15 2 13
15 3 16
15 4 16
15 5 37
15 6 18
15 7 31
15 8 35
15 9 19
15 10 19
15 11 35
15 12 20
15 13 28
15 14 22
16 0 38
16 1 8
16 2 30
16 3 38
16 4 31
16 5 35
16 6 24
16 7 7
16 8 22
16 9 35
16 10 12
16 11 11
16 12 40
16 13 39
16 14 8
16 15 30
17 0 25
17 1 18
17 2 18
17 3 6
17 4 4
17 5 22
17 6 18
17 7 39
17 8 30
17 9 2
17 10 30
17 11 1
17 12 40
17 13 1
17 14 5
17 15 36
17 16 25
18 0 2
18 1 36
18 2 14
18 3 2
18 4 3
18 5 40
18 6 37
18 7 38
18 8 11
18 9 29
18 10 34
18 11 10
18 12 4
18 13 5
18 14 9
18 15 34
18 16 19
18 17 19
19 0 32
19 1 31
19 2 5
19 3 34
19 4 8
19 5 35
19 6 3
19 7 37
19 8 8
19 9 35
19 10 12
19 11 31
19 12 12
19 13 24
19 14 12
19 15 2
19 16 38
19 17 32
19 18 40
20 0 21
20 1 36
20 2 22
20 3 26
20 4 23
20 5 38
20 6 15
20 7 25
20 8 26
20 9 21
20 10 30
20 11 26
20 12 25
20 13 8
20 14 12
20 15 25
20 16 5
20 17 5
20 18 34
20 19 1
21 0 31
21 1 32
21 2 16
21 3 24
21 4 38
21 5 30
21 6 26
21 7 2
21 8 40
21 9 37
21 10 17
21 11 21
21 12 20
21 13 8
21 14 9
21 15 19
21 16 34
21 17 34
21 18 33
21 19 38
21 20 1
22 0 7
22 1 24
22 2 20
22 3 34
22 4 27
22 5 3
22 6 14
22 7 24
22 8 10
22 9 30
22 10 13
22 11 37
22 12 17
22 13 1
22 14 25
22 15 21
22 16 22
22 17 17
22 18 33
22 19 1
22 20 25
22 21 32
23 0 19
23 1 1
23 2 1
23 3 10
23 4 33
23 5 36
23 6 11
23 7 21
23 8 4
23 9 18
23 10 24
23 11 17
23 12 11
23 13 2
23 14 14
23 15 38
23 16 33
23 17 34
23 18 36
23 19 38
23 20 13
23 21 26
23 22 32
24 0 26
24 1 33
24 2 32
24 3 28
24 4 16
24 5 8
24 6 35
24 7 33
24 8 7
24 9 3
24 10 33
24 11 7
24 12 4
24 13 33
24 14 10
24 15 31
24 16 30
24 17 2
24 18 3
24 19 28
24 20 2
24 21 14
24 22 40
24 23 22
25 0 3
25 1 1
25 2 21
25 3 25
25 4 2
25 5 23
25 6 33
25 7 7
25 8 17
25 9 33
25 10 17
25 11 11
25 12 26
25 13 1
25 14 26
25 15 8
25 16 5
25 17 10
25 18 8
25 19 13
25 20 17
25 21 3
25 22 16
25 23 9
25 24 4
26 0 8
26 1 31
26 2 7
26 3 36
26 4 29
26 5 12
26 6 8
26 7 35
26 8 40
26 9 14
26 10 26
26 11 30
26 12 11
26 13 37
26 14 33
26 15 32
26 16 33
26 17 13
26 18 38
26 19 38
26 20 37
26 21 24
26 22 31
26 23 16
26 24 9
26 25 39
27 0 24
27 1 40
27 2 40
27 3 35
27 4 4
27 5 12
27 6 26
27 7 8
27 8 36
27 9 38
27 10 10
27 11 9
27 12 9
27 13 39
27 14 5
27 15 36
27 16 11
27 17 31
27 18 28
27 19 31
27 20 13
27 21 13
27 22 39
27 23 22
27 24 8
27 25 20
27 26 28
28 0 11
28 1 12
28 2 38
28 3 28
28 4 14
28 5 33
28 6 20
28 7 14
28 8 4
28 9 39
28 10 7
28 11 29
28 12 24
28 13 15
28 14 26
28 15 10
28 16 27
28 17 40
28 18 1
28 19 25
28 20 28
28 21 12
28 22 33
28 23 25
28 24 21
28 25 3
28 26 23
28 27 36
29 0 10
29 1 36
29 2 38
29 3 27
29 4 5
29 5 24
29 6 25
29 7 17
29 8 31
29 9 2
29 10 20
29 11 18
29 12 10
29 13 34
29 14 24
29 15 15
29 16 29
29 17 7
29 18 32
29 19 28
29 20 40
29 21 29
29 22 25
29 23 34
29 24 39
29 25 12
29 26 14
29 27 24
29 28 25
30 0 24
30 1 4
30 2 38
30 3 21
30 4 25
30 5 8
30 6 9
30 7 27
30 8 2
30 9 11
30 10 21
30 11 38
30 12 35
30 13 17
30 14 30
30 15 6
30 16 28
30 17 11
30 18 21
30 19 30
30 20 9
30 21 18
30 22 35
30 23 1
30 24 33
30 25 13
30 26 32
30 27 22
30 28 10
30 29 24
31 0 23
31 1 24
31 2 3
31 3 13
31 4 27
31 5 16
31 6 4
31 7 17
31 8 40
31 9 11
31 10 39
31 11 22
31 12 37
31 13 28
31 14 35
31 15 12
31 16 8
31 17 13
31 18 28
31 19 30
31 20 18
31 21 9
31 22 16
31 23 34
31 24 22
31 25 36
31 26 13
31 27 16
31 28 18
31 29 36
31 30 30
32 0 19
32 1 2
32 2 1
32 3 23
32 4 17
32 5 12
32 6 25
32 7 23
32 8 37
32 9 22
32 10 1
32 11 2
32 12 35
32 13 32
32 14 31
32 15 3
32 16 33
32 17 25
32 18 27
32 19 30
32 20 12
32 21 14
32 22 36
32 23 28
32 24 11
32 25 21
32 26 38
32 27 15
32 28 33
32 29 10
32 30 37
32 31 20
33 0 16
33 1 30
33 2 21
33 3 27
33 4 7
33 5 40
33 6 27
33 7 9
33 8 39
33 9 20
33 10 31
33 11 26
33 12 11
33 13 37
33 14 37
33 15 10
33 16 7
33 17 3
33 18 25
33 19 35
33 20 31
33 21 22
33 22 27
33 23 34
33 24 1
33 25 39
33 26 26
33 27 21
33 28 8
33 29 15
33 30 35
33 31 29
33 32 11
34 0 31
34 1 18
34 2 28
34 3 40
34 4 16
34 5 25
34 6 27
34 7 35
34 8 7
34 9 36
34 10 15
34 11 15
34 12 3
34 13 29
34 14 15
34 15 38
34 16 17
34 17 33
34 18 22
34 19 24
34 20 3
34 21 20
34 22 25
34 23 13
34 24 34
34 25 24
34 26 6
34 27 24
34 28 13
34 29 13
34 30 22
34 31 14
34 32 9
34 33 40
35 0 6
35 1 32
35 2 38
35 3 2
35 4 7
35 5 27
35 6 34
35 7 12
35 8 13
35 9 7
35 10 18
35 11 16
35 12 2
35 13 2
35 14 21
35 15 7
35 16 9
35 17 24
35 18 35
35 19 13
35 20 9
35 21 4
35 22 16
35 23 8
35 24 40
35 25 20
35 26 6
35 27 39
35 28 17
35 29 7
35 30 18
35 31 2
35 32 9
35 33 34
35 34 13
36 0 37
36 1 11
36 2 9
36 3 9
36 4 10
36 5 23
36 6 4
36 7 6
36 8 36
36 9 36
36 10 25
36 11 34
36 12 30
36 13 24
36 14 38
36 15 19
36 16 37
36 17 31
36 18 2
36 19 15
36 20 33
36 21 14
36 22 30
36 23 1
36 24 29
36 25 19
36 26 20
36 27 22
36 28 40
36 29 2
36 30 27
36 31 35
36 32 23
36 33 39
36 34 1
36 35 32
37 0 14
37 1 24
37 2 35
37 3 18
37 4 28
37 5 40
37 6 37
37 7 29
37 8 23
37 9 7
37 10 4
37 11 5
37 12 34
37 13 25
37 14 19
37 15 25
37 16 21
37 17 27
37 18 14
37 19 19
37 20 13
37 21 40
37 22 3
37 23 28
37 24 32
37 25 11
37 26 2
37 27 39
37 28 20
37 29 14
37 30 6
37 31 13
37 32 17
37 33 26
37 34 13
37 35 12
37 36 28
38 0 8
38 1 12
38 2 33
38 3 26
38 4 21
38 5 24
38 6 17
38 7 12
38 8 34
38 9 7
38 10 16
38 11 4
38 12 35
38 13 18
38 14 39
38 15 22
38 16 32
38 17 29
38 18 27
38 19 30
38 20 12
38 21 34
38 22 17
38 23 16
38 24 31
38 25 4
38 26 6
38 27 15
38 28 5
38 29 15
38 30 28
38 31 7
38 32 25
38 33 39
38 34 21
38 35 34
38 36 31
38 37 3
39 0 21
39 1 5
39 2 22
39 3 15
39 4 31
39 5 34
39 6 29
39 7 12
39 8 6
39 9 36
39 10 27
39 11 5
39 12 4
39 13 19
39 14 33
39 15 38
39 16 37
39 17 38
39 18 21
39 19 32
39 20 28
39 21 7
39 22 3
39 23 39
39 24 5
39 25 26
39 26 40
39 27 2
39 28 15
39 29 31
39 30 1
39 31 6
39 32 29
39 33 25
39 34 16
39 35 25
39 36 3
39 37 24
39 38 14
